NAME          COPTPROB
OBJSENSE
  MIN
ROWS
 N  __OBJ___
 L  C1      
 L  C7      
 L  C12     
 L  C20     
 L  C21     
 L  C31     
 L  C42     
 L  C43     
 L  C52     
 L  C55     
 L  C91     
 L  C110    
 L  C117    
 L  C130    
 L  C137    
 L  C143    
 L  C144    
 L  C150    
 L  C167    
 L  C188    
COLUMNS
    MARKER    'MARKER'                 'INTORG'
    x18       __OBJ___  416
    x18       C130      -1
    x18       C150      -1
    x108      __OBJ___  137
    x108      C21       -1
    x108      C167      -1
    x117      __OBJ___  336
    x117      C43       -1
    x117      C188      -1
    x136      __OBJ___  46
    x136      C55       -1
    x136      C117      -1
    x144      __OBJ___  849
    x144      C130      -1
    x144      C143      -1
    x200      __OBJ___  529
    x200      C7        -1
    x200      C143      -1
    x244      __OBJ___  474
    x244      C143      -1
    x250      __OBJ___  28
    x250      C110      -1
    x250      C137      -1
    x287      __OBJ___  22
    x287      C117      -1
    x432      __OBJ___  130
    x432      C31       -1
    x432      C91       -1
    x672      __OBJ___  32
    x672      C1        -1
    x672      C167      -1
    x693      __OBJ___  138
    x693      C55       -1
    x693      C150      -1
    x824      __OBJ___  23
    x824      C137      -1
    x824      C144      -1
    x862      __OBJ___  765
    x862      C20       -1
    x862      C143      -1
    x999      __OBJ___  358
    x999      C20       -1
    x999      C150      -1
    x1122     __OBJ___  90
    x1122     C91       -1
    x1122     C117      -1
    x1274     __OBJ___  47
    x1274     C43       -1
    x1288     __OBJ___  49
    x1288     C43       -1
    x1288     C110      -1
    x1310     __OBJ___  70
    x1310     C12       -1
    x1310     C144      -1
    x1432     __OBJ___  53
    x1432     C31       -1
    x1432     C52       -1
    x1468     __OBJ___  5
    x1468     C42       -1
    x1468     C52       -1
    x1489     __OBJ___  14
    x1489     C167      -1
    x1527     __OBJ___  319
    x1527     C42       -1
    x1527     C188      -1
    x1563     __OBJ___  140
    x1563     C12       -1
    x1563     C21       -1
    x1565     __OBJ___  122
    x1565     C1        -1
    x1565     C7        -1
    MARKER    'MARKER'                 'INTEND'
RHS
    RHS       __OBJ___  -8342
    RHS       C1        -1
    RHS       C7        -1
    RHS       C12       -1
    RHS       C20       -1
    RHS       C21       -1
    RHS       C31       -1
    RHS       C42       -1
    RHS       C43       -1
    RHS       C52       -1
    RHS       C55       -1
    RHS       C91       -1
    RHS       C110      -1
    RHS       C117      -1
    RHS       C130      -1
    RHS       C137      -1
    RHS       C143      -1
    RHS       C144      -1
    RHS       C150      -1
    RHS       C167      -1
    RHS       C188      -1
BOUNDS
 UP BOUND     x18       1
 UP BOUND     x108      1
 UP BOUND     x117      1
 UP BOUND     x136      1
 UP BOUND     x144      1
 UP BOUND     x200      1
 UP BOUND     x244      1
 UP BOUND     x250      1
 UP BOUND     x287      1
 UP BOUND     x432      1
 UP BOUND     x672      1
 UP BOUND     x693      1
 UP BOUND     x824      1
 UP BOUND     x862      1
 UP BOUND     x999      1
 UP BOUND     x1122     1
 UP BOUND     x1274     1
 UP BOUND     x1288     1
 UP BOUND     x1310     1
 UP BOUND     x1432     1
 UP BOUND     x1468     1
 UP BOUND     x1489     1
 UP BOUND     x1527     1
 UP BOUND     x1563     1
 UP BOUND     x1565     1
ENDATA
